5 5
1 62 0 49 2 84 4 54 3 10
1 24 0 97 4 29 2 94 3 6
0 58 3 78 2 57 1 3 4 24
2 19 3 98 4 9 1 30 0 96
2 77 1 82 4 44 3 53 0 86
-1
0 1 2 4 5
0 1 3 4 5
0 1 2 3 5
0 1 4 5
0 1 3 5
-2
86 127 340 321
32 157 253 295
68 148 306 221
25 211 259
93 232 376

390 9
10 1 6 19 24
0 5 21 18 13
15 20 2 12 8
16 11 23 4 9
17 22 7 3 14
